p cnf 964 2475
51 -2 -697 0
-51 2 0
-51 697 0
52 -51 -3 0
-52 51 0
-52 3 0
53 -4 -2 0
-53 4 0
-53 2 0
54 -53 -698 0
-54 53 0
-54 698 0
55 -699 -700 0
-55 699 0
-55 700 0
56 -701 -702 0
-56 701 0
-56 702 0
57 -56 -7 0
-57 56 0
-57 7 0
58 -703 -55 0
-58 703 0
-58 55 0
59 -6 -704 0
-59 6 0
-59 704 0
60 -59 -705 0
-60 59 0
-60 705 0
61 -706 -58 0
-61 706 0
-61 58 0
62 -707 -708 0
-62 707 0
-62 708 0
63 -62 -709 0
-63 62 0
-63 709 0
64 -710 -61 0
-64 710 0
-64 61 0
65 -711 -704 0
-65 711 0
-65 704 0
66 -65 -13 0
-66 65 0
-66 13 0
67 -712 -64 0
-67 712 0
-67 64 0
68 -14 -12 0
-68 14 0
-68 12 0
69 -68 -713 0
-69 68 0
-69 713 0
70 -714 -67 0
-70 714 0
-70 67 0
71 -17 -16 0
-71 17 0
-71 16 0
72 -71 -13 0
-72 71 0
-72 13 0
73 -715 -70 0
-73 715 0
-73 70 0
74 -716 -698 0
-74 716 0
-74 698 0
75 -74 -19 0
-75 74 0
-75 19 0
76 -717 -73 0
-76 717 0
-76 73 0
77 -20 -6 0
-77 20 0
-77 6 0
78 -77 -718 0
-78 77 0
-78 718 0
79 -719 -76 0
-79 719 0
-79 76 0
80 -720 -721 0
-80 720 0
-80 721 0
81 -80 -707 0
-81 80 0
-81 707 0
82 -722 -79 0
-82 722 0
-82 79 0
83 -723 -24 0
-83 723 0
-83 24 0
84 -83 -26 0
-84 83 0
-84 26 0
85 -724 -82 0
-85 724 0
-85 82 0
86 -725 -726 0
-86 725 0
-86 726 0
87 -86 -12 0
-87 86 0
-87 12 0
88 -727 -85 0
-88 727 0
-88 85 0
89 -28 -697 0
-89 28 0
-89 697 0
90 -89 -19 0
-90 89 0
-90 19 0
91 -728 -88 0
-91 728 0
-91 88 0
92 -30 -29 0
-92 30 0
-92 29 0
93 -92 -729 0
-93 92 0
-93 729 0
94 -730 -91 0
-94 730 0
-94 91 0
95 -31 -20 0
-95 31 0
-95 20 0
96 -95 -731 0
-96 95 0
-96 731 0
97 -732 -94 0
-97 732 0
-97 94 0
98 -733 -33 0
-98 733 0
-98 33 0
99 -98 -35 0
-99 98 0
-99 35 0
100 -734 -97 0
-100 734 0
-100 97 0
101 -27 -711 0
-101 27 0
-101 711 0
102 -101 -709 0
-102 101 0
-102 709 0
103 -735 -100 0
-103 735 0
-103 100 0
104 -736 -24 0
-104 736 0
-104 24 0
105 -104 -37 0
-105 104 0
-105 37 0
106 -737 -103 0
-106 737 0
-106 103 0
107 -738 -709 0
-107 738 0
-107 709 0
108 -107 -739 0
-108 107 0
-108 739 0
109 -740 -106 0
-109 740 0
-109 106 0
110 -741 -4 0
-110 741 0
-110 4 0
111 -110 -27 0
-111 110 0
-111 27 0
112 -742 -109 0
-112 742 0
-112 109 0
113 -743 -39 0
-113 743 0
-113 39 0
114 -113 -19 0
-114 113 0
-114 19 0
115 -744 -112 0
-115 744 0
-115 112 0
116 -745 -14 0
-116 745 0
-116 14 0
117 -116 -17 0
-117 116 0
-117 17 0
118 -746 -115 0
-118 746 0
-118 115 0
119 -747 -705 0
-119 747 0
-119 705 0
120 -119 -748 0
-120 119 0
-120 748 0
121 -749 -118 0
-121 749 0
-121 118 0
122 -41 -736 0
-122 41 0
-122 736 0
123 -122 -26 0
-123 122 0
-123 26 0
124 -750 -121 0
-124 750 0
-124 121 0
125 -27 -22 0
-125 27 0
-125 22 0
126 -125 -32 0
-126 125 0
-126 32 0
127 -751 -124 0
-127 751 0
-127 124 0
128 -40 -5 0
-128 40 0
-128 5 0
129 -128 -32 0
-129 128 0
-129 32 0
130 -752 -127 0
-130 752 0
-130 127 0
131 -753 -707 0
-131 753 0
-131 707 0
132 -131 -705 0
-132 131 0
-132 705 0
133 -754 -130 0
-133 754 0
-133 130 0
134 -755 -23 0
-134 755 0
-134 23 0
135 -134 -731 0
-135 134 0
-135 731 0
136 -756 -133 0
-136 756 0
-136 133 0
137 -31 -18 0
-137 31 0
-137 18 0
138 -137 -731 0
-138 137 0
-138 731 0
139 -757 -136 0
-139 757 0
-139 136 0
140 -44 -758 0
-140 44 0
-140 758 0
141 -140 -707 0
-141 140 0
-141 707 0
142 -759 -139 0
-142 759 0
-142 139 0
143 -42 -725 0
-143 42 0
-143 725 0
144 -143 -13 0
-144 143 0
-144 13 0
145 -760 -142 0
-145 760 0
-145 142 0
146 -45 -37 0
-146 45 0
-146 37 0
147 -146 -761 0
-147 146 0
-147 761 0
148 -762 -145 0
-148 762 0
-148 145 0
149 -763 -25 0
-149 763 0
-149 25 0
150 -149 -726 0
-150 149 0
-150 726 0
151 -764 -148 0
-151 764 0
-151 148 0
152 -765 -708 0
-152 765 0
-152 708 0
153 -152 -707 0
-153 152 0
-153 707 0
154 -766 -151 0
-154 766 0
-154 151 0
155 -767 -12 0
-155 767 0
-155 12 0
156 -155 -768 0
-156 155 0
-156 768 0
157 -769 -154 0
-157 769 0
-157 154 0
158 -770 -771 0
-158 770 0
-158 771 0
159 -158 -738 0
-159 158 0
-159 738 0
160 -772 -157 0
-160 772 0
-160 157 0
161 -29 -707 0
-161 29 0
-161 707 0
162 -161 -773 0
-162 161 0
-162 773 0
163 -774 -160 0
-163 774 0
-163 160 0
164 -755 -775 0
-164 755 0
-164 775 0
165 -164 -776 0
-165 164 0
-165 776 0
166 -777 -163 0
-166 777 0
-166 163 0
167 -776 -2 0
-167 776 0
-167 2 0
168 -167 -34 0
-168 167 0
-168 34 0
169 -778 -166 0
-169 778 0
-169 166 0
170 -14 -3 0
-170 14 0
-170 3 0
171 -170 -726 0
-171 170 0
-171 726 0
172 -779 -169 0
-172 779 0
-172 169 0
173 -747 -780 0
-173 747 0
-173 780 0
174 -173 -704 0
-174 173 0
-174 704 0
175 -781 -172 0
-175 781 0
-175 172 0
176 -782 -771 0
-176 782 0
-176 771 0
177 -176 -783 0
-177 176 0
-177 783 0
178 -784 -175 0
-178 784 0
-178 175 0
179 -41 -14 0
-179 41 0
-179 14 0
180 -179 -783 0
-180 179 0
-180 783 0
181 -785 -178 0
-181 785 0
-181 178 0
182 -786 -725 0
-182 786 0
-182 725 0
183 -182 -13 0
-183 182 0
-183 13 0
184 -787 -181 0
-184 787 0
-184 181 0
185 -723 -7 0
-185 723 0
-185 7 0
186 -185 -731 0
-186 185 0
-186 731 0
187 -788 -184 0
-187 788 0
-187 184 0
188 -741 -10 0
-188 741 0
-188 10 0
189 -188 -738 0
-189 188 0
-189 738 0
190 -789 -187 0
-190 789 0
-190 187 0
191 -37 -22 0
-191 37 0
-191 22 0
192 -191 -738 0
-192 191 0
-192 738 0
193 -790 -190 0
-193 790 0
-193 190 0
194 -773 -2 0
-194 773 0
-194 2 0
195 -194 -26 0
-195 194 0
-195 26 0
196 -791 -193 0
-196 791 0
-196 193 0
197 -37 -708 0
-197 37 0
-197 708 0
198 -197 -32 0
-198 197 0
-198 32 0
199 -792 -196 0
-199 792 0
-199 196 0
200 -782 -20 0
-200 782 0
-200 20 0
201 -200 -704 0
-201 200 0
-201 704 0
202 -793 -199 0
-202 793 0
-202 199 0
203 -33 -27 0
-203 33 0
-203 27 0
204 -203 -43 0
-204 203 0
-204 43 0
205 -794 -202 0
-205 794 0
-205 202 0
206 -29 -701 0
-206 29 0
-206 701 0
207 -206 -3 0
-207 206 0
-207 3 0
208 -795 -205 0
-208 795 0
-208 205 0
209 -786 -720 0
-209 786 0
-209 720 0
210 -209 -32 0
-210 209 0
-210 32 0
211 -796 -208 0
-211 796 0
-211 208 0
212 -22 -698 0
-212 22 0
-212 698 0
213 -212 -13 0
-213 212 0
-213 13 0
214 -797 -211 0
-214 797 0
-214 211 0
215 -36 -4 0
-215 36 0
-215 4 0
216 -215 -6 0
-216 215 0
-216 6 0
217 -798 -214 0
-217 798 0
-217 214 0
218 -765 -9 0
-218 765 0
-218 9 0
219 -218 -775 0
-219 218 0
-219 775 0
220 -799 -217 0
-220 799 0
-220 217 0
221 -48 -755 0
-221 48 0
-221 755 0
222 -221 -8 0
-222 221 0
-222 8 0
223 -800 -220 0
-223 800 0
-223 220 0
224 -41 -20 0
-224 41 0
-224 20 0
225 -224 -701 0
-225 224 0
-225 701 0
226 -801 -223 0
-226 801 0
-226 223 0
227 -39 -34 0
-227 39 0
-227 34 0
228 -227 -19 0
-228 227 0
-228 19 0
229 -802 -226 0
-229 802 0
-229 226 0
230 -44 -29 0
-230 44 0
-230 29 0
231 -230 -11 0
-231 230 0
-231 11 0
232 -803 -229 0
-232 803 0
-232 229 0
233 -804 -9 0
-233 804 0
-233 9 0
234 -233 -35 0
-234 233 0
-234 35 0
235 -805 -232 0
-235 805 0
-235 232 0
236 -37 -718 0
-236 37 0
-236 718 0
237 -236 -7 0
-237 236 0
-237 7 0
238 -806 -235 0
-238 806 0
-238 235 0
239 -725 -729 0
-239 725 0
-239 729 0
240 -239 -38 0
-240 239 0
-240 38 0
241 -807 -238 0
-241 807 0
-241 238 0
242 -29 -20 0
-242 29 0
-242 20 0
243 -242 -45 0
-243 242 0
-243 45 0
244 -808 -241 0
-244 808 0
-244 241 0
245 -48 -765 0
-245 48 0
-245 765 0
246 -245 -34 0
-246 245 0
-246 34 0
247 -809 -244 0
-247 809 0
-247 244 0
248 -43 -741 0
-248 43 0
-248 741 0
249 -248 -12 0
-249 248 0
-249 12 0
250 -810 -247 0
-250 810 0
-250 247 0
251 -49 -780 0
-251 49 0
-251 780 0
252 -251 -34 0
-252 251 0
-252 34 0
253 -811 -250 0
-253 811 0
-253 250 0
254 -29 -17 0
-254 29 0
-254 17 0
255 -254 -19 0
-255 254 0
-255 19 0
256 -812 -253 0
-256 812 0
-256 253 0
257 -745 -28 0
-257 745 0
-257 28 0
258 -257 -5 0
-258 257 0
-258 5 0
259 -813 -256 0
-259 813 0
-259 256 0
260 -27 -723 0
-260 27 0
-260 723 0
261 -260 -17 0
-261 260 0
-261 17 0
262 -814 -259 0
-262 814 0
-262 259 0
263 -41 -10 0
-263 41 0
-263 10 0
264 -263 -773 0
-264 263 0
-264 773 0
265 -815 -262 0
-265 815 0
-265 262 0
266 -736 -2 0
-266 736 0
-266 2 0
267 -266 -7 0
-267 266 0
-267 7 0
268 -816 -265 0
-268 816 0
-268 265 0
269 -30 -697 0
-269 30 0
-269 697 0
270 -269 -755 0
-270 269 0
-270 755 0
271 -817 -268 0
-271 817 0
-271 268 0
272 -43 -9 0
-272 43 0
-272 9 0
273 -272 -698 0
-273 272 0
-273 698 0
274 -818 -271 0
-274 818 0
-274 271 0
275 -33 -28 0
-275 33 0
-275 28 0
276 -275 -10 0
-276 275 0
-276 10 0
277 -819 -274 0
-277 819 0
-277 274 0
278 -786 -701 0
-278 786 0
-278 701 0
279 -278 -8 0
-279 278 0
-279 8 0
280 -820 -277 0
-280 820 0
-280 277 0
281 -48 -768 0
-281 48 0
-281 768 0
282 -281 -748 0
-282 281 0
-282 748 0
283 -821 -280 0
-283 821 0
-283 280 0
284 -729 -711 0
-284 729 0
-284 711 0
285 -284 -783 0
-285 284 0
-285 783 0
286 -822 -283 0
-286 822 0
-286 283 0
287 -775 -20 0
-287 775 0
-287 20 0
288 -287 -3 0
-288 287 0
-288 3 0
289 -823 -286 0
-289 823 0
-289 286 0
290 -786 -726 0
-290 786 0
-290 726 0
291 -290 -11 0
-291 290 0
-291 11 0
292 -824 -289 0
-292 824 0
-292 289 0
293 -804 -776 0
-293 804 0
-293 776 0
294 -293 -26 0
-294 293 0
-294 26 0
295 -825 -292 0
-295 825 0
-295 292 0
296 -44 -755 0
-296 44 0
-296 755 0
297 -296 -739 0
-297 296 0
-297 739 0
298 -826 -295 0
-298 826 0
-298 295 0
299 -736 -22 0
-299 736 0
-299 22 0
300 -299 -713 0
-300 299 0
-300 713 0
301 -827 -298 0
-301 827 0
-301 298 0
302 -726 -2 0
-302 726 0
-302 2 0
303 -302 -15 0
-303 302 0
-303 15 0
304 -828 -301 0
-304 828 0
-304 301 0
305 -48 -21 0
-305 48 0
-305 21 0
306 -305 -705 0
-306 305 0
-306 705 0
307 -829 -304 0
-307 829 0
-307 304 0
308 -42 -16 0
-308 42 0
-308 16 0
309 -308 -34 0
-309 308 0
-309 34 0
310 -830 -307 0
-310 830 0
-310 307 0
311 -22 -18 0
-311 22 0
-311 18 0
312 -311 -709 0
-312 311 0
-312 709 0
313 -831 -310 0
-313 831 0
-313 310 0
314 -832 -27 0
-314 832 0
-314 27 0
315 -314 -13 0
-315 314 0
-315 13 0
316 -833 -313 0
-316 833 0
-316 313 0
317 -741 -29 0
-317 741 0
-317 29 0
318 -317 -23 0
-318 317 0
-318 23 0
319 -834 -316 0
-319 834 0
-319 316 0
320 -716 -780 0
-320 716 0
-320 780 0
321 -320 -705 0
-321 320 0
-321 705 0
322 -835 -319 0
-322 835 0
-322 319 0
323 -736 -28 0
-323 736 0
-323 28 0
324 -323 -15 0
-324 323 0
-324 15 0
325 -836 -322 0
-325 836 0
-325 322 0
326 -125 -718 0
-326 125 0
-326 718 0
327 -837 -325 0
-327 837 0
-327 325 0
328 -48 -41 0
-328 48 0
-328 41 0
329 -328 -19 0
-329 328 0
-329 19 0
330 -838 -327 0
-330 838 0
-330 327 0
331 -782 -3 0
-331 782 0
-331 3 0
332 -331 -711 0
-332 331 0
-332 711 0
333 -839 -330 0
-333 839 0
-333 330 0
334 -50 -753 0
-334 50 0
-334 753 0
335 -334 -725 0
-335 334 0
-335 725 0
336 -840 -333 0
-336 840 0
-336 333 0
337 -39 -20 0
-337 39 0
-337 20 0
338 -337 -780 0
-338 337 0
-338 780 0
339 -841 -336 0
-339 841 0
-339 336 0
340 -40 -27 0
-340 40 0
-340 27 0
341 -340 -7 0
-341 340 0
-341 7 0
342 -842 -339 0
-342 842 0
-342 339 0
343 -768 -17 0
-343 768 0
-343 17 0
344 -343 -32 0
-344 343 0
-344 32 0
345 -843 -342 0
-345 843 0
-345 342 0
346 -48 -747 0
-346 48 0
-346 747 0
347 -346 -702 0
-347 346 0
-347 702 0
348 -844 -345 0
-348 844 0
-348 345 0
349 -33 -6 0
-349 33 0
-349 6 0
350 -349 -47 0
-350 349 0
-350 47 0
351 -845 -348 0
-351 845 0
-351 348 0
352 -12 -4 0
-352 12 0
-352 4 0
353 -352 -731 0
-353 352 0
-353 731 0
354 -846 -351 0
-354 846 0
-354 351 0
355 -48 -745 0
-355 48 0
-355 745 0
356 -355 -23 0
-356 355 0
-356 23 0
357 -847 -354 0
-357 847 0
-357 354 0
358 -770 -707 0
-358 770 0
-358 707 0
359 -358 -771 0
-359 358 0
-359 771 0
360 -848 -357 0
-360 848 0
-360 357 0
361 -42 -743 0
-361 42 0
-361 743 0
362 -361 -22 0
-362 361 0
-362 22 0
363 -849 -360 0
-363 849 0
-363 360 0
364 -39 -21 0
-364 39 0
-364 21 0
365 -364 -19 0
-365 364 0
-365 19 0
366 -850 -363 0
-366 850 0
-366 363 0
367 -767 -28 0
-367 767 0
-367 28 0
368 -367 -851 0
-368 367 0
-368 851 0
369 -852 -366 0
-369 852 0
-369 366 0
370 -41 -36 0
-370 41 0
-370 36 0
371 -370 -15 0
-371 370 0
-371 15 0
372 -853 -369 0
-372 853 0
-372 369 0
373 -39 -23 0
-373 39 0
-373 23 0
374 -373 -758 0
-374 373 0
-374 758 0
375 -854 -372 0
-375 854 0
-375 372 0
376 -39 -30 0
-376 39 0
-376 30 0
377 -376 -28 0
-377 376 0
-377 28 0
378 -855 -375 0
-378 855 0
-378 375 0
379 -49 -708 0
-379 49 0
-379 708 0
380 -379 -718 0
-380 379 0
-380 718 0
381 -856 -378 0
-381 856 0
-381 378 0
382 -49 -40 0
-382 49 0
-382 40 0
383 -382 -5 0
-383 382 0
-383 5 0
384 -857 -381 0
-384 857 0
-384 381 0
385 -34 -33 0
-385 34 0
-385 33 0
386 -385 -8 0
-386 385 0
-386 8 0
387 -858 -384 0
-387 858 0
-387 384 0
388 -720 -701 0
-388 720 0
-388 701 0
389 -388 -17 0
-389 388 0
-389 17 0
390 -859 -387 0
-390 859 0
-390 387 0
391 -702 -1 0
-391 702 0
-391 1 0
392 -391 -713 0
-392 391 0
-392 713 0
393 -860 -390 0
-393 860 0
-393 390 0
394 -786 -27 0
-394 786 0
-394 27 0
395 -394 -709 0
-395 394 0
-395 709 0
396 -861 -393 0
-396 861 0
-396 393 0
397 -10 -697 0
-397 10 0
-397 697 0
398 -397 -761 0
-398 397 0
-398 761 0
399 -862 -396 0
-399 862 0
-399 396 0
400 -39 -863 0
-400 39 0
-400 863 0
401 -400 -851 0
-401 400 0
-401 851 0
402 -864 -399 0
-402 864 0
-402 399 0
403 -40 -25 0
-403 40 0
-403 25 0
404 -403 -705 0
-404 403 0
-404 705 0
405 -865 -402 0
-405 865 0
-405 402 0
406 -721 -20 0
-406 721 0
-406 20 0
407 -406 -758 0
-407 406 0
-407 758 0
408 -866 -405 0
-408 866 0
-408 405 0
409 -776 -767 0
-409 776 0
-409 767 0
410 -409 -761 0
-410 409 0
-410 761 0
411 -867 -408 0
-411 867 0
-411 408 0
412 -771 -14 0
-412 771 0
-412 14 0
413 -412 -19 0
-413 412 0
-413 19 0
414 -868 -411 0
-414 868 0
-414 411 0
415 -31 -782 0
-415 31 0
-415 782 0
416 -415 -748 0
-416 415 0
-416 748 0
417 -869 -414 0
-417 869 0
-417 414 0
418 -36 -1 0
-418 36 0
-418 1 0
419 -418 -17 0
-419 418 0
-419 17 0
420 -870 -417 0
-420 870 0
-420 417 0
421 -39 -29 0
-421 39 0
-421 29 0
422 -421 -46 0
-422 421 0
-422 46 0
423 -871 -420 0
-423 871 0
-423 420 0
424 -27 -14 0
-424 27 0
-424 14 0
425 -424 -8 0
-425 424 0
-425 8 0
426 -872 -423 0
-426 872 0
-426 423 0
427 -28 -3 0
-427 28 0
-427 3 0
428 -427 -711 0
-428 427 0
-428 711 0
429 -873 -426 0
-429 873 0
-429 426 0
430 -726 -11 0
-430 726 0
-430 11 0
431 -430 -46 0
-431 430 0
-431 46 0
432 -874 -429 0
-432 874 0
-432 429 0
433 -755 -704 0
-433 755 0
-433 704 0
434 -433 -32 0
-434 433 0
-434 32 0
435 -875 -432 0
-435 875 0
-435 432 0
436 -24 -708 0
-436 24 0
-436 708 0
437 -436 -26 0
-437 436 0
-437 26 0
438 -876 -435 0
-438 876 0
-438 435 0
439 -44 -720 0
-439 44 0
-439 720 0
440 -439 -704 0
-440 439 0
-440 704 0
441 -877 -438 0
-441 877 0
-441 438 0
442 -47 -8 0
-442 47 0
-442 8 0
443 -442 -771 0
-443 442 0
-443 771 0
444 -878 -441 0
-444 878 0
-444 441 0
445 -29 -720 0
-445 29 0
-445 720 0
446 -445 -16 0
-446 445 0
-446 16 0
447 -879 -444 0
-447 879 0
-447 444 0
448 -42 -736 0
-448 42 0
-448 736 0
449 -448 -32 0
-449 448 0
-449 32 0
450 -880 -447 0
-450 880 0
-450 447 0
451 -723 -713 0
-451 723 0
-451 713 0
452 -451 -18 0
-452 451 0
-452 18 0
453 -881 -450 0
-453 881 0
-453 450 0
454 -767 -748 0
-454 767 0
-454 748 0
455 -454 -783 0
-455 454 0
-455 783 0
456 -882 -453 0
-456 882 0
-456 453 0
457 -851 -804 0
-457 851 0
-457 804 0
458 -457 -15 0
-458 457 0
-458 15 0
459 -883 -456 0
-459 883 0
-459 456 0
460 -832 -28 0
-460 832 0
-460 28 0
461 -460 -783 0
-461 460 0
-461 783 0
462 -884 -459 0
-462 884 0
-462 459 0
463 -418 -10 0
-463 418 0
-463 10 0
464 -885 -462 0
-464 885 0
-464 462 0
465 -29 -758 0
-465 29 0
-465 758 0
466 -465 -3 0
-466 465 0
-466 3 0
467 -886 -464 0
-467 886 0
-467 464 0
468 -43 -37 0
-468 43 0
-468 37 0
469 -468 -702 0
-469 468 0
-469 702 0
470 -887 -467 0
-470 887 0
-470 467 0
471 -755 -28 0
-471 755 0
-471 28 0
472 -471 -17 0
-472 471 0
-472 17 0
473 -888 -470 0
-473 888 0
-473 470 0
474 -776 -1 0
-474 776 0
-474 1 0
475 -474 -771 0
-475 474 0
-475 771 0
476 -889 -473 0
-476 889 0
-476 473 0
477 -736 -704 0
-477 736 0
-477 704 0
478 -477 -19 0
-478 477 0
-478 19 0
479 -890 -476 0
-479 890 0
-479 476 0
480 -768 -718 0
-480 768 0
-480 718 0
481 -480 -748 0
-481 480 0
-481 748 0
482 -891 -479 0
-482 891 0
-482 479 0
483 -305 -709 0
-483 305 0
-483 709 0
484 -892 -482 0
-484 892 0
-484 482 0
485 -27 -701 0
-485 27 0
-485 701 0
486 -485 -773 0
-486 485 0
-486 773 0
487 -893 -484 0
-487 893 0
-487 484 0
488 -776 -21 0
-488 776 0
-488 21 0
489 -488 -35 0
-489 488 0
-489 35 0
490 -894 -487 0
-490 894 0
-490 487 0
491 -721 -10 0
-491 721 0
-491 10 0
492 -491 -748 0
-492 491 0
-492 748 0
493 -895 -490 0
-493 895 0
-493 490 0
494 -753 -34 0
-494 753 0
-494 34 0
495 -494 -12 0
-495 494 0
-495 12 0
496 -896 -493 0
-496 896 0
-496 493 0
497 -6 -3 0
-497 6 0
-497 3 0
498 -497 -5 0
-498 497 0
-498 5 0
499 -897 -496 0
-499 897 0
-499 496 0
500 -41 -33 0
-500 41 0
-500 33 0
501 -500 -43 0
-501 500 0
-501 43 0
502 -898 -499 0
-502 898 0
-502 499 0
503 -30 -20 0
-503 30 0
-503 20 0
504 -503 -720 0
-504 503 0
-504 720 0
505 -899 -502 0
-505 899 0
-505 502 0
506 -768 -775 0
-506 768 0
-506 775 0
507 -506 -38 0
-507 506 0
-507 38 0
508 -900 -505 0
-508 900 0
-508 505 0
509 -736 -718 0
-509 736 0
-509 718 0
510 -509 -702 0
-510 509 0
-510 702 0
511 -901 -508 0
-511 901 0
-511 508 0
512 -39 -31 0
-512 39 0
-512 31 0
513 -512 -40 0
-513 512 0
-513 40 0
514 -902 -511 0
-514 902 0
-514 511 0
515 -22 -729 0
-515 22 0
-515 729 0
516 -515 -733 0
-516 515 0
-516 733 0
517 -903 -514 0
-517 903 0
-517 514 0
518 -36 -782 0
-518 36 0
-518 782 0
519 -518 -45 0
-519 518 0
-519 45 0
520 -904 -517 0
-520 904 0
-520 517 0
521 -43 -40 0
-521 43 0
-521 40 0
522 -521 -13 0
-522 521 0
-522 13 0
523 -905 -520 0
-523 905 0
-523 520 0
524 -497 -711 0
-524 497 0
-524 711 0
525 -906 -523 0
-525 906 0
-525 523 0
526 -512 -5 0
-526 512 0
-526 5 0
527 -907 -525 0
-527 907 0
-527 525 0
528 -48 -763 0
-528 48 0
-528 763 0
529 -528 -767 0
-529 528 0
-529 767 0
530 -908 -527 0
-530 908 0
-530 527 0
531 -780 -704 0
-531 780 0
-531 704 0
532 -531 -761 0
-532 531 0
-532 761 0
533 -909 -530 0
-533 909 0
-533 530 0
534 -726 -701 0
-534 726 0
-534 701 0
535 -534 -705 0
-535 534 0
-535 705 0
536 -910 -533 0
-536 910 0
-536 533 0
537 -741 -18 0
-537 741 0
-537 18 0
538 -537 -7 0
-538 537 0
-538 7 0
539 -911 -536 0
-539 911 0
-539 536 0
540 -49 -9 0
-540 49 0
-540 9 0
541 -540 -776 0
-541 540 0
-541 776 0
542 -912 -539 0
-542 912 0
-542 539 0
543 -50 -697 0
-543 50 0
-543 697 0
544 -543 -725 0
-544 543 0
-544 725 0
545 -913 -542 0
-545 913 0
-545 542 0
546 -40 -23 0
-546 40 0
-546 23 0
547 -546 -748 0
-547 546 0
-547 748 0
548 -914 -545 0
-548 914 0
-548 545 0
549 -27 -20 0
-549 27 0
-549 20 0
550 -549 -698 0
-550 549 0
-550 698 0
551 -915 -548 0
-551 915 0
-551 548 0
552 -708 -697 0
-552 708 0
-552 697 0
553 -552 -718 0
-553 552 0
-553 718 0
554 -916 -551 0
-554 916 0
-554 551 0
555 -758 -707 0
-555 758 0
-555 707 0
556 -555 -698 0
-556 555 0
-556 698 0
557 -917 -554 0
-557 917 0
-557 554 0
558 -733 -27 0
-558 733 0
-558 27 0
559 -558 -716 0
-559 558 0
-559 716 0
560 -918 -557 0
-560 918 0
-560 557 0
561 -745 -29 0
-561 745 0
-561 29 0
562 -561 -776 0
-562 561 0
-562 776 0
563 -919 -560 0
-563 919 0
-563 560 0
564 -775 -725 0
-564 775 0
-564 725 0
565 -564 -707 0
-565 564 0
-565 707 0
566 -920 -563 0
-566 920 0
-566 563 0
567 -832 -775 0
-567 832 0
-567 775 0
568 -567 -46 0
-568 567 0
-568 46 0
569 -921 -566 0
-569 921 0
-569 566 0
570 -47 -36 0
-570 47 0
-570 36 0
571 -570 -702 0
-571 570 0
-571 702 0
572 -922 -569 0
-572 922 0
-572 569 0
573 -743 -704 0
-573 743 0
-573 704 0
574 -573 -13 0
-574 573 0
-574 13 0
575 -923 -572 0
-575 923 0
-575 572 0
576 -10 -761 0
-576 10 0
-576 761 0
577 -576 -46 0
-577 576 0
-577 46 0
578 -924 -575 0
-578 924 0
-578 575 0
579 -741 -704 0
-579 741 0
-579 704 0
580 -579 -32 0
-580 579 0
-580 32 0
581 -925 -578 0
-581 925 0
-581 578 0
582 -50 -22 0
-582 50 0
-582 22 0
583 -582 -851 0
-583 582 0
-583 851 0
584 -926 -581 0
-584 926 0
-584 581 0
585 -33 -729 0
-585 33 0
-585 729 0
586 -585 -28 0
-586 585 0
-586 28 0
587 -927 -584 0
-587 927 0
-587 584 0
588 -9 -697 0
-588 9 0
-588 697 0
589 -588 -709 0
-589 588 0
-589 709 0
590 -928 -587 0
-590 928 0
-590 587 0
591 -22 -713 0
-591 22 0
-591 713 0
592 -591 -13 0
-592 591 0
-592 13 0
593 -929 -590 0
-593 929 0
-593 590 0
594 -49 -23 0
-594 49 0
-594 23 0
595 -594 -16 0
-595 594 0
-595 16 0
596 -930 -593 0
-596 930 0
-596 593 0
597 -39 -775 0
-597 39 0
-597 775 0
598 -597 -14 0
-598 597 0
-598 14 0
599 -931 -596 0
-599 931 0
-599 596 0
600 -15 -12 0
-600 15 0
-600 12 0
601 -600 -709 0
-601 600 0
-601 709 0
602 -932 -599 0
-602 932 0
-602 599 0
603 -775 -721 0
-603 775 0
-603 721 0
604 -603 -7 0
-604 603 0
-604 7 0
605 -933 -602 0
-605 933 0
-605 602 0
606 -44 -31 0
-606 44 0
-606 31 0
607 -606 -36 0
-607 606 0
-607 36 0
608 -934 -605 0
-608 934 0
-608 605 0
609 -48 -701 0
-609 48 0
-609 701 0
610 -609 -767 0
-610 609 0
-610 767 0
611 -935 -608 0
-611 935 0
-611 608 0
612 -36 -718 0
-612 36 0
-612 718 0
613 -612 -711 0
-613 612 0
-613 711 0
614 -936 -611 0
-614 936 0
-614 611 0
615 -765 -30 0
-615 765 0
-615 30 0
616 -615 -23 0
-616 615 0
-616 23 0
617 -937 -614 0
-617 937 0
-617 614 0
618 -786 -5 0
-618 786 0
-618 5 0
619 -618 -12 0
-619 618 0
-619 12 0
620 -938 -617 0
-620 938 0
-620 617 0
621 -15 -5 0
-621 15 0
-621 5 0
622 -621 -32 0
-622 621 0
-622 32 0
623 -939 -620 0
-623 939 0
-623 620 0
624 -804 -721 0
-624 804 0
-624 721 0
625 -624 -43 0
-625 624 0
-625 43 0
626 -940 -623 0
-626 940 0
-626 623 0
627 -743 -24 0
-627 743 0
-627 24 0
628 -627 -771 0
-628 627 0
-628 771 0
629 -941 -626 0
-629 941 0
-629 626 0
630 -721 -697 0
-630 721 0
-630 697 0
631 -630 -21 0
-631 630 0
-631 21 0
632 -942 -629 0
-632 942 0
-632 629 0
633 -709 -7 0
-633 709 0
-633 7 0
634 -633 -19 0
-634 633 0
-634 19 0
635 -943 -632 0
-635 943 0
-635 632 0
636 -512 -18 0
-636 512 0
-636 18 0
637 -944 -635 0
-637 944 0
-637 635 0
638 -50 -720 0
-638 50 0
-638 720 0
639 -638 -738 0
-639 638 0
-639 738 0
640 -945 -637 0
-640 945 0
-640 637 0
641 -615 -14 0
-641 615 0
-641 14 0
642 -946 -640 0
-642 946 0
-642 640 0
643 -47 -42 0
-643 47 0
-643 42 0
644 -643 -2 0
-644 643 0
-644 2 0
645 -947 -642 0
-645 947 0
-645 642 0
646 -736 -23 0
-646 736 0
-646 23 0
647 -646 -711 0
-647 646 0
-647 711 0
648 -948 -645 0
-648 948 0
-648 645 0
649 -39 -780 0
-649 39 0
-649 780 0
650 -649 -3 0
-650 649 0
-650 3 0
651 -949 -648 0
-651 949 0
-651 648 0
652 -720 -718 0
-652 720 0
-652 718 0
653 -652 -38 0
-653 652 0
-653 38 0
654 -950 -651 0
-654 950 0
-654 651 0
655 -45 -707 0
-655 45 0
-655 707 0
656 -655 -738 0
-656 655 0
-656 738 0
657 -951 -654 0
-657 951 0
-657 654 0
658 -27 -718 0
-658 27 0
-658 718 0
659 -658 -38 0
-659 658 0
-659 38 0
660 -952 -657 0
-660 952 0
-660 657 0
661 -804 -44 0
-661 804 0
-661 44 0
662 -661 -863 0
-662 661 0
-662 863 0
663 -953 -660 0
-663 953 0
-663 660 0
664 -24 -729 0
-664 24 0
-664 729 0
665 -664 -11 0
-665 664 0
-665 11 0
666 -954 -663 0
-666 954 0
-666 663 0
667 -770 -43 0
-667 770 0
-667 43 0
668 -667 -37 0
-668 667 0
-668 37 0
669 -955 -666 0
-669 955 0
-669 666 0
670 -729 -708 0
-670 729 0
-670 708 0
671 -670 -770 0
-671 670 0
-671 770 0
672 -956 -669 0
-672 956 0
-672 669 0
673 -40 -780 0
-673 40 0
-673 780 0
674 -673 -733 0
-674 673 0
-674 733 0
675 -957 -672 0
-675 957 0
-675 672 0
676 -786 -743 0
-676 786 0
-676 743 0
677 -676 -50 0
-677 676 0
-677 50 0
678 -958 -675 0
-678 958 0
-678 675 0
679 -765 -34 0
-679 765 0
-679 34 0
680 -679 -32 0
-680 679 0
-680 32 0
681 -959 -678 0
-681 959 0
-681 678 0
682 -37 -863 0
-682 37 0
-682 863 0
683 -682 -702 0
-683 682 0
-683 702 0
684 -960 -681 0
-684 960 0
-684 681 0
685 -49 -753 0
-685 49 0
-685 753 0
686 -685 -3 0
-686 685 0
-686 3 0
687 -961 -684 0
-687 961 0
-687 684 0
688 -49 -775 0
-688 49 0
-688 775 0
689 -688 -14 0
-689 688 0
-689 14 0
690 -962 -687 0
-690 962 0
-690 687 0
691 -765 -33 0
-691 765 0
-691 33 0
692 -691 -707 0
-692 691 0
-692 707 0
693 -963 -690 0
-693 963 0
-693 690 0
694 -743 -745 0
-694 743 0
-694 745 0
695 -694 -38 0
-695 694 0
-695 38 0
696 -964 -693 0
-696 964 0
-696 693 0
-697 -1 0
697 1 0
-698 -5 0
698 5 0
-699 -54 0
699 54 0
-700 -52 0
700 52 0
-701 -6 0
701 6 0
-702 -3 0
702 3 0
-703 -57 0
703 57 0
-704 -2 0
704 2 0
-705 -8 0
705 8 0
-706 -60 0
706 60 0
-707 -10 0
707 10 0
-708 -9 0
708 9 0
-709 -11 0
709 11 0
-710 -63 0
710 63 0
-711 -12 0
711 12 0
-712 -66 0
712 66 0
-713 -15 0
713 15 0
-714 -69 0
714 69 0
-715 -72 0
715 72 0
-716 -18 0
716 18 0
-717 -75 0
717 75 0
-718 -21 0
718 21 0
-719 -78 0
719 78 0
-720 -23 0
720 23 0
-721 -22 0
721 22 0
-722 -81 0
722 81 0
-723 -25 0
723 25 0
-724 -84 0
724 84 0
-725 -27 0
725 27 0
-726 -17 0
726 17 0
-727 -87 0
727 87 0
-728 -90 0
728 90 0
-729 -20 0
729 20 0
-730 -93 0
730 93 0
-731 -32 0
731 32 0
-732 -96 0
732 96 0
-733 -34 0
733 34 0
-734 -99 0
734 99 0
-735 -102 0
735 102 0
-736 -36 0
736 36 0
-737 -105 0
737 105 0
-738 -38 0
738 38 0
-739 -13 0
739 13 0
-740 -108 0
740 108 0
-741 -31 0
741 31 0
-742 -111 0
742 111 0
-743 -40 0
743 40 0
-744 -114 0
744 114 0
-745 -30 0
745 30 0
-746 -117 0
746 117 0
-747 -33 0
747 33 0
-748 -35 0
748 35 0
-749 -120 0
749 120 0
-750 -123 0
750 123 0
-751 -126 0
751 126 0
-752 -129 0
752 129 0
-753 -42 0
753 42 0
-754 -132 0
754 132 0
-755 -43 0
755 43 0
-756 -135 0
756 135 0
-757 -138 0
757 138 0
-758 -14 0
758 14 0
-759 -141 0
759 141 0
-760 -144 0
760 144 0
-761 -7 0
761 7 0
-762 -147 0
762 147 0
-763 -39 0
763 39 0
-764 -150 0
764 150 0
-765 -44 0
765 44 0
-766 -153 0
766 153 0
-767 -37 0
767 37 0
-768 -46 0
768 46 0
-769 -156 0
769 156 0
-770 -47 0
770 47 0
-771 -26 0
771 26 0
-772 -159 0
772 159 0
-773 -16 0
773 16 0
-774 -162 0
774 162 0
-775 -29 0
775 29 0
-776 -45 0
776 45 0
-777 -165 0
777 165 0
-778 -168 0
778 168 0
-779 -171 0
779 171 0
-780 -4 0
780 4 0
-781 -174 0
781 174 0
-782 -28 0
782 28 0
-783 -19 0
783 19 0
-784 -177 0
784 177 0
-785 -180 0
785 180 0
-786 -41 0
786 41 0
-787 -183 0
787 183 0
-788 -186 0
788 186 0
-789 -189 0
789 189 0
-790 -192 0
790 192 0
-791 -195 0
791 195 0
-792 -198 0
792 198 0
-793 -201 0
793 201 0
-794 -204 0
794 204 0
-795 -207 0
795 207 0
-796 -210 0
796 210 0
-797 -213 0
797 213 0
-798 -216 0
798 216 0
-799 -219 0
799 219 0
-800 -222 0
800 222 0
-801 -225 0
801 225 0
-802 -228 0
802 228 0
-803 -231 0
803 231 0
-804 -48 0
804 48 0
-805 -234 0
805 234 0
-806 -237 0
806 237 0
-807 -240 0
807 240 0
-808 -243 0
808 243 0
-809 -246 0
809 246 0
-810 -249 0
810 249 0
-811 -252 0
811 252 0
-812 -255 0
812 255 0
-813 -258 0
813 258 0
-814 -261 0
814 261 0
-815 -264 0
815 264 0
-816 -267 0
816 267 0
-817 -270 0
817 270 0
-818 -273 0
818 273 0
-819 -276 0
819 276 0
-820 -279 0
820 279 0
-821 -282 0
821 282 0
-822 -285 0
822 285 0
-823 -288 0
823 288 0
-824 -291 0
824 291 0
-825 -294 0
825 294 0
-826 -297 0
826 297 0
-827 -300 0
827 300 0
-828 -303 0
828 303 0
-829 -306 0
829 306 0
-830 -309 0
830 309 0
-831 -312 0
831 312 0
-832 -50 0
832 50 0
-833 -315 0
833 315 0
-834 -318 0
834 318 0
-835 -321 0
835 321 0
-836 -324 0
836 324 0
-837 -326 0
837 326 0
-838 -329 0
838 329 0
-839 -332 0
839 332 0
-840 -335 0
840 335 0
-841 -338 0
841 338 0
-842 -341 0
842 341 0
-843 -344 0
843 344 0
-844 -347 0
844 347 0
-845 -350 0
845 350 0
-846 -353 0
846 353 0
-847 -356 0
847 356 0
-848 -359 0
848 359 0
-849 -362 0
849 362 0
-850 -365 0
850 365 0
-851 -49 0
851 49 0
-852 -368 0
852 368 0
-853 -371 0
853 371 0
-854 -374 0
854 374 0
-855 -377 0
855 377 0
-856 -380 0
856 380 0
-857 -383 0
857 383 0
-858 -386 0
858 386 0
-859 -389 0
859 389 0
-860 -392 0
860 392 0
-861 -395 0
861 395 0
-862 -398 0
862 398 0
-863 -24 0
863 24 0
-864 -401 0
864 401 0
-865 -404 0
865 404 0
-866 -407 0
866 407 0
-867 -410 0
867 410 0
-868 -413 0
868 413 0
-869 -416 0
869 416 0
-870 -419 0
870 419 0
-871 -422 0
871 422 0
-872 -425 0
872 425 0
-873 -428 0
873 428 0
-874 -431 0
874 431 0
-875 -434 0
875 434 0
-876 -437 0
876 437 0
-877 -440 0
877 440 0
-878 -443 0
878 443 0
-879 -446 0
879 446 0
-880 -449 0
880 449 0
-881 -452 0
881 452 0
-882 -455 0
882 455 0
-883 -458 0
883 458 0
-884 -461 0
884 461 0
-885 -463 0
885 463 0
-886 -466 0
886 466 0
-887 -469 0
887 469 0
-888 -472 0
888 472 0
-889 -475 0
889 475 0
-890 -478 0
890 478 0
-891 -481 0
891 481 0
-892 -483 0
892 483 0
-893 -486 0
893 486 0
-894 -489 0
894 489 0
-895 -492 0
895 492 0
-896 -495 0
896 495 0
-897 -498 0
897 498 0
-898 -501 0
898 501 0
-899 -504 0
899 504 0
-900 -507 0
900 507 0
-901 -510 0
901 510 0
-902 -513 0
902 513 0
-903 -516 0
903 516 0
-904 -519 0
904 519 0
-905 -522 0
905 522 0
-906 -524 0
906 524 0
-907 -526 0
907 526 0
-908 -529 0
908 529 0
-909 -532 0
909 532 0
-910 -535 0
910 535 0
-911 -538 0
911 538 0
-912 -541 0
912 541 0
-913 -544 0
913 544 0
-914 -547 0
914 547 0
-915 -550 0
915 550 0
-916 -553 0
916 553 0
-917 -556 0
917 556 0
-918 -559 0
918 559 0
-919 -562 0
919 562 0
-920 -565 0
920 565 0
-921 -568 0
921 568 0
-922 -571 0
922 571 0
-923 -574 0
923 574 0
-924 -577 0
924 577 0
-925 -580 0
925 580 0
-926 -583 0
926 583 0
-927 -586 0
927 586 0
-928 -589 0
928 589 0
-929 -592 0
929 592 0
-930 -595 0
930 595 0
-931 -598 0
931 598 0
-932 -601 0
932 601 0
-933 -604 0
933 604 0
-934 -607 0
934 607 0
-935 -610 0
935 610 0
-936 -613 0
936 613 0
-937 -616 0
937 616 0
-938 -619 0
938 619 0
-939 -622 0
939 622 0
-940 -625 0
940 625 0
-941 -628 0
941 628 0
-942 -631 0
942 631 0
-943 -634 0
943 634 0
-944 -636 0
944 636 0
-945 -639 0
945 639 0
-946 -641 0
946 641 0
-947 -644 0
947 644 0
-948 -647 0
948 647 0
-949 -650 0
949 650 0
-950 -653 0
950 653 0
-951 -656 0
951 656 0
-952 -659 0
952 659 0
-953 -662 0
953 662 0
-954 -665 0
954 665 0
-955 -668 0
955 668 0
-956 -671 0
956 671 0
-957 -674 0
957 674 0
-958 -677 0
958 677 0
-959 -680 0
959 680 0
-960 -683 0
960 683 0
-961 -686 0
961 686 0
-962 -689 0
962 689 0
-963 -692 0
963 692 0
-964 -695 0
964 695 0
696 0
